\ Model mochilas
\ LP format - for model browsing. Use MPS format to capture full model detail.
Minimize
  x[100] + x[101] + x[102] + x[103] + x[104] + x[105] + x[106] + x[107]
   + x[108] + x[109]
Subject To
 R0: x[0] + x[10] + x[20] + x[30] + x[40] + x[50] + x[60] + x[70] + x[80]
   + x[90] = 1
 R1: x[1] + x[11] + x[21] + x[31] + x[41] + x[51] + x[61] + x[71] + x[81]
   + x[91] = 1
 R2: x[2] + x[12] + x[22] + x[32] + x[42] + x[52] + x[62] + x[72] + x[82]
   + x[92] = 1
 R3: x[3] + x[13] + x[23] + x[33] + x[43] + x[53] + x[63] + x[73] + x[83]
   + x[93] = 1
 R4: x[4] + x[14] + x[24] + x[34] + x[44] + x[54] + x[64] + x[74] + x[84]
   + x[94] = 1
 R5: x[5] + x[15] + x[25] + x[35] + x[45] + x[55] + x[65] + x[75] + x[85]
   + x[95] = 1
 R6: x[6] + x[16] + x[26] + x[36] + x[46] + x[56] + x[66] + x[76] + x[86]
   + x[96] = 1
 R7: x[7] + x[17] + x[27] + x[37] + x[47] + x[57] + x[67] + x[77] + x[87]
   + x[97] = 1
 R8: x[8] + x[18] + x[28] + x[38] + x[48] + x[58] + x[68] + x[78] + x[88]
   + x[98] = 1
 R9: x[9] + x[19] + x[29] + x[39] + x[49] + x[59] + x[69] + x[79] + x[89]
   + x[99] = 1
 R10: 4 x[0] + 9 x[1] + 4 x[2] + 6 x[3] + 7 x[4] + 3 x[5] + 5 x[6] + 8 x[7]
   + 2 x[8] + 8 x[9] - 10 x[100] <= 0
 R11: 4 x[10] + 9 x[11] + 4 x[12] + 6 x[13] + 7 x[14] + 3 x[15] + 5 x[16]
   + 8 x[17] + 2 x[18] + 8 x[19] - 10 x[101] <= 0
 R12: 4 x[20] + 9 x[21] + 4 x[22] + 6 x[23] + 7 x[24] + 3 x[25] + 5 x[26]
   + 8 x[27] + 2 x[28] + 8 x[29] - 10 x[102] <= 0
 R13: 4 x[30] + 9 x[31] + 4 x[32] + 6 x[33] + 7 x[34] + 3 x[35] + 5 x[36]
   + 8 x[37] + 2 x[38] + 8 x[39] - 10 x[103] <= 0
 R14: 4 x[40] + 9 x[41] + 4 x[42] + 6 x[43] + 7 x[44] + 3 x[45] + 5 x[46]
   + 8 x[47] + 2 x[48] + 8 x[49] - 10 x[104] <= 0
 R15: 4 x[50] + 9 x[51] + 4 x[52] + 6 x[53] + 7 x[54] + 3 x[55] + 5 x[56]
   + 8 x[57] + 2 x[58] + 8 x[59] - 10 x[105] <= 0
 R16: 4 x[60] + 9 x[61] + 4 x[62] + 6 x[63] + 7 x[64] + 3 x[65] + 5 x[66]
   + 8 x[67] + 2 x[68] + 8 x[69] - 10 x[106] <= 0
 R17: 4 x[70] + 9 x[71] + 4 x[72] + 6 x[73] + 7 x[74] + 3 x[75] + 5 x[76]
   + 8 x[77] + 2 x[78] + 8 x[79] - 10 x[107] <= 0
 R18: 4 x[80] + 9 x[81] + 4 x[82] + 6 x[83] + 7 x[84] + 3 x[85] + 5 x[86]
   + 8 x[87] + 2 x[88] + 8 x[89] - 10 x[108] <= 0
 R19: 4 x[90] + 9 x[91] + 4 x[92] + 6 x[93] + 7 x[94] + 3 x[95] + 5 x[96]
   + 8 x[97] + 2 x[98] + 8 x[99] - 10 x[109] <= 0
Bounds
Binaries
 x[0] x[1] x[2] x[3] x[4] x[5] x[6] x[7] x[8] x[9] x[10] x[11] x[12] x[13]
 x[14] x[15] x[16] x[17] x[18] x[19] x[20] x[21] x[22] x[23] x[24] x[25]
 x[26] x[27] x[28] x[29] x[30] x[31] x[32] x[33] x[34] x[35] x[36] x[37]
 x[38] x[39] x[40] x[41] x[42] x[43] x[44] x[45] x[46] x[47] x[48] x[49]
 x[50] x[51] x[52] x[53] x[54] x[55] x[56] x[57] x[58] x[59] x[60] x[61]
 x[62] x[63] x[64] x[65] x[66] x[67] x[68] x[69] x[70] x[71] x[72] x[73]
 x[74] x[75] x[76] x[77] x[78] x[79] x[80] x[81] x[82] x[83] x[84] x[85]
 x[86] x[87] x[88] x[89] x[90] x[91] x[92] x[93] x[94] x[95] x[96] x[97]
 x[98] x[99] x[100] x[101] x[102] x[103] x[104] x[105] x[106] x[107] x[108]
 x[109]
End
